objective value:                                10079
t_x_2                                               1 	(obj:37)
t_x_4                                               1 	(obj:21)
t_x_5                                               1 	(obj:10)
t_x_16                                              1 	(obj:32)
t_x_18                                              1 	(obj:1)
t_x_22                                              1 	(obj:27)
t_x_33                                              1 	(obj:25)
t_x_34                                              1 	(obj:17)
t_x_35                                              1 	(obj:7)
t_x_36                                              1 	(obj:20)
t_x_38                                              1 	(obj:58)
t_x_39                                              1 	(obj:18)
t_x_41                                              1 	(obj:38)
t_x_43                                              1 	(obj:75)
t_x_44                                              1 	(obj:70)
t_x_50                                              1 	(obj:4)
t_x_54                                              1 	(obj:2)
t_x_57                                              1 	(obj:10)
t_x_59                                              1 	(obj:18)
t_x_62                                              1 	(obj:13)
t_x_64                                              1 	(obj:15)
t_x_71                                              1 	(obj:19)
t_x_74                                              1 	(obj:1)
t_x_78                                              1 	(obj:0)
t_x_79                                              1 	(obj:12)
t_x_86                                              1 	(obj:22)
t_x_91                                              1 	(obj:22)
t_x_92                                              1 	(obj:16)
t_x_96                                              1 	(obj:15)
t_x_97                                              1 	(obj:12)
t_x_101                                             1 	(obj:35)
t_x_105                                             1 	(obj:12)
t_x_107                                             1 	(obj:14)
t_x_111                                             1 	(obj:46)
t_x_112                                             1 	(obj:9)
t_x_118                                             1 	(obj:11)
t_x_121                                             1 	(obj:35)
t_x_124                                             1 	(obj:17)
t_x_127                                             1 	(obj:1)
t_x_131                                             1 	(obj:10)
t_x_136                                             1 	(obj:18)
t_x_137                                             1 	(obj:16)
t_x_139                                             1 	(obj:19)
t_x_140                                             1 	(obj:9)
t_x_144                                             1 	(obj:4)
t_x_146                                             1 	(obj:14)
t_x_147                                             1 	(obj:13)
t_x_152                                             1 	(obj:50)
t_x_154                                             1 	(obj:15)
t_x_157                                             1 	(obj:22)
t_x_162                                             1 	(obj:11)
t_x_163                                             1 	(obj:39)
t_x_164                                             1 	(obj:6)
t_x_173                                             1 	(obj:47)
t_x_174                                             1 	(obj:20)
t_x_176                                             1 	(obj:28)
t_x_183                                             1 	(obj:14)
t_x_187                                             1 	(obj:14)
t_x_188                                             1 	(obj:0)
t_x_190                                             1 	(obj:14)
t_x_195                                             1 	(obj:9)
t_x_197                                             1 	(obj:57)
t_x_198                                             1 	(obj:3)
t_x_199                                             1 	(obj:47)
t_x_208                                             1 	(obj:5)
t_x_209                                             1 	(obj:9)
t_x_218                                             1 	(obj:3)
t_x_219                                             1 	(obj:19)
t_x_226                                             1 	(obj:16)
t_x_227                                             1 	(obj:18)
t_x_230                                             1 	(obj:23)
t_x_234                                             1 	(obj:26)
t_x_238                                             1 	(obj:39)
t_x_239                                             1 	(obj:7)
t_x_244                                             1 	(obj:0)
t_x_248                                             1 	(obj:12)
t_x_253                                             1 	(obj:32)
t_x_260                                             1 	(obj:44)
t_x_261                                             1 	(obj:2)
t_x_264                                             1 	(obj:32)
t_x_266                                             1 	(obj:53)
t_x_269                                             1 	(obj:8)
t_x_272                                             1 	(obj:4)
t_x_278                                             1 	(obj:17)
t_x_280                                             1 	(obj:0)
t_x_282                                             1 	(obj:23)
t_x_283                                             1 	(obj:38)
t_x_290                                             1 	(obj:62)
t_x_298                                             1 	(obj:2)
t_x_305                                             1 	(obj:16)
t_x_306                                             1 	(obj:29)
t_x_308                                             1 	(obj:20)
t_x_310                                             1 	(obj:6)
t_x_320                                             1 	(obj:21)
t_x_322                                             1 	(obj:15)
t_x_325                                             1 	(obj:0)
t_x_326                                             1 	(obj:22)
t_x_329                                             1 	(obj:33)
t_x_336                                             1 	(obj:26)
t_x_337                                             1 	(obj:9)
t_x_338                                             1 	(obj:7)
t_x_339                                             1 	(obj:39)
t_x_340                                             1 	(obj:16)
t_x_342                                             1 	(obj:8)
t_x_343                                             1 	(obj:9)
t_x_345                                             1 	(obj:57)
t_x_353                                             1 	(obj:23)
t_x_354                                             1 	(obj:20)
t_x_355                                             1 	(obj:5)
t_x_358                                             1 	(obj:55)
t_x_369                                             1 	(obj:11)
t_x_371                                             1 	(obj:54)
t_x_374                                             1 	(obj:5)
t_x_376                                             1 	(obj:29)
t_x_377                                             1 	(obj:15)
t_x_378                                             1 	(obj:4)
t_x_379                                             1 	(obj:2)
t_x_382                                             1 	(obj:38)
t_x_383                                             1 	(obj:1)
t_x_387                                             1 	(obj:16)
t_x_388                                             1 	(obj:27)
t_x_389                                             1 	(obj:25)
t_x_390                                             1 	(obj:9)
t_x_401                                             1 	(obj:50)
t_x_415                                             1 	(obj:1)
t_x_417                                             1 	(obj:20)
t_x_418                                             1 	(obj:10)
t_x_422                                             1 	(obj:10)
t_x_424                                             1 	(obj:20)
t_x_428                                             1 	(obj:44)
t_x_431                                             1 	(obj:9)
t_x_438                                             1 	(obj:38)
t_x_440                                             1 	(obj:13)
t_x_441                                             1 	(obj:8)
t_x_443                                             1 	(obj:15)
t_x_445                                             1 	(obj:3)
t_x_446                                             1 	(obj:2)
t_x_447                                             1 	(obj:1)
t_x_449                                             1 	(obj:8)
t_x_457                                             1 	(obj:9)
t_x_461                                             1 	(obj:32)
t_x_466                                             1 	(obj:0)
t_x_476                                             1 	(obj:11)
t_x_488                                             1 	(obj:52)
t_x_493                                             1 	(obj:16)
t_x_496                                             1 	(obj:7)
t_x_503                                             1 	(obj:8)
t_x_504                                             1 	(obj:14)
t_x_510                                             1 	(obj:71)
t_x_512                                             1 	(obj:15)
t_x_527                                             1 	(obj:10)
t_x_532                                             1 	(obj:17)
t_x_534                                             1 	(obj:35)
t_x_542                                             1 	(obj:42)
t_x_545                                             1 	(obj:20)
t_x_546                                             1 	(obj:24)
t_x_547                                             1 	(obj:2)
t_x_551                                             1 	(obj:16)
t_x_564                                             1 	(obj:1)
t_x_566                                             1 	(obj:10)
t_x_569                                             1 	(obj:17)
t_x_582                                             1 	(obj:14)
t_x_587                                             1 	(obj:35)
t_x_589                                             1 	(obj:7)
t_x_594                                             1 	(obj:6)
t_x_597                                             1 	(obj:22)
t_x_601                                             1 	(obj:19)
t_x_605                                             1 	(obj:11)
t_x_606                                             1 	(obj:16)
t_x_617                                             1 	(obj:30)
t_x_620                                             1 	(obj:24)
t_x_625                                             1 	(obj:30)
t_x_626                                             1 	(obj:11)
t_x_632                                             1 	(obj:8)
t_x_633                                             1 	(obj:8)
t_x_638                                             1 	(obj:5)
t_x_642                                             1 	(obj:0)
t_x_643                                             1 	(obj:76)
t_x_651                                             1 	(obj:9)
t_x_652                                             1 	(obj:56)
t_x_654                                             1 	(obj:16)
t_x_656                                             1 	(obj:27)
t_x_660                                             1 	(obj:21)
t_x_662                                             1 	(obj:5)
t_x_663                                             1 	(obj:24)
t_x_665                                             1 	(obj:18)
t_x_676                                             1 	(obj:7)
t_x_683                                             1 	(obj:14)
t_x_692                                             1 	(obj:34)
t_x_693                                             1 	(obj:27)
t_x_694                                             1 	(obj:41)
t_x_700                                             1 	(obj:22)
t_x_702                                             1 	(obj:10)
t_x_705                                             1 	(obj:18)
t_x_709                                             1 	(obj:20)
t_x_714                                             1 	(obj:8)
t_x_718                                             1 	(obj:6)
t_x_720                                             1 	(obj:14)
t_x_723                                             1 	(obj:0)
t_x_727                                             1 	(obj:35)
t_x_731                                             1 	(obj:7)
t_x_732                                             1 	(obj:8)
t_x_734                                             1 	(obj:20)
t_x_735                                             1 	(obj:9)
t_x_738                                             1 	(obj:12)
t_x_743                                             1 	(obj:6)
t_x_745                                             1 	(obj:5)
t_x_748                                             1 	(obj:4)
t_x_750                                             1 	(obj:40)
t_x_753                                             1 	(obj:5)
t_x_760                                             1 	(obj:18)
t_x_763                                             1 	(obj:10)
t_x_774                                             1 	(obj:3)
t_x_775                                             1 	(obj:35)
t_x_779                                             1 	(obj:24)
t_x_780                                             1 	(obj:6)
t_x_782                                             1 	(obj:14)
t_x_788                                             1 	(obj:23)
t_x_789                                             1 	(obj:19)
t_x_790                                             1 	(obj:10)
t_x_794                                             1 	(obj:14)
t_x_797                                             1 	(obj:0)
t_x_799                                             1 	(obj:5)
t_x_801                                             1 	(obj:34)
t_x_803                                             1 	(obj:6)
t_x_805                                             1 	(obj:7)
t_x_809                                             1 	(obj:5)
t_x_810                                             1 	(obj:17)
t_x_814                                             1 	(obj:23)
t_x_818                                             1 	(obj:8)
t_x_820                                             1 	(obj:20)
t_x_821                                             1 	(obj:12)
t_x_826                                             1 	(obj:5)
t_x_829                                             1 	(obj:0)
t_x_830                                             1 	(obj:17)
t_x_831                                             1 	(obj:1)
t_x_832                                             1 	(obj:2)
t_x_833                                             1 	(obj:9)
t_x_836                                             1 	(obj:29)
t_x_839                                             1 	(obj:18)
t_x_843                                             1 	(obj:35)
t_x_849                                             1 	(obj:5)
t_x_852                                             1 	(obj:12)
t_x_854                                             1 	(obj:1)
t_x_859                                             1 	(obj:6)
t_x_861                                             1 	(obj:5)
t_x_862                                             1 	(obj:35)
t_x_869                                             1 	(obj:49)
t_x_870                                             1 	(obj:30)
t_x_872                                             1 	(obj:21)
t_x_876                                             1 	(obj:19)
t_x_877                                             1 	(obj:28)
t_x_878                                             1 	(obj:4)
t_x_885                                             1 	(obj:15)
t_x_888                                             1 	(obj:21)
t_x_896                                             1 	(obj:36)
t_x_897                                             1 	(obj:4)
t_x_900                                             1 	(obj:24)
t_x_902                                             1 	(obj:17)
t_x_911                                             1 	(obj:7)
t_x_915                                             1 	(obj:10)
t_x_916                                             1 	(obj:10)
t_x_922                                             1 	(obj:1)
t_x_925                                             1 	(obj:26)
t_x_930                                             1 	(obj:77)
t_x_934                                             1 	(obj:27)
t_x_944                                             1 	(obj:28)
t_x_947                                             1 	(obj:49)
t_x_955                                             1 	(obj:19)
t_x_964                                             1 	(obj:20)
t_x_965                                             1 	(obj:8)
t_x_969                                             1 	(obj:22)
t_x_974                                             1 	(obj:9)
t_x_975                                             1 	(obj:8)
t_x_979                                             1 	(obj:51)
t_x_982                                             1 	(obj:17)
t_x_984                                             1 	(obj:5)
t_x_986                                             1 	(obj:23)
t_x_987                                             1 	(obj:26)
t_x_989                                             1 	(obj:21)
t_x_993                                             1 	(obj:13)
t_x_1002                                            1 	(obj:13)
t_x_1003                                            1 	(obj:7)
t_x_1004                                            1 	(obj:3)
t_x_1013                                            1 	(obj:10)
t_x_1016                                            1 	(obj:13)
t_x_1024                                            1 	(obj:34)
t_x_1026                                            1 	(obj:14)
t_x_1031                                            1 	(obj:6)
t_x_1035                                            1 	(obj:8)
t_x_1038                                            1 	(obj:11)
t_x_1041                                            1 	(obj:44)
t_x_1046                                            1 	(obj:5)
t_x_1051                                            1 	(obj:3)
t_x_1052                                            1 	(obj:21)
t_x_1053                                            1 	(obj:2)
t_x_1056                                            1 	(obj:5)
t_x_1059                                            1 	(obj:9)
t_x_1062                                            1 	(obj:14)
t_x_1068                                            1 	(obj:2)
t_x_1069                                            1 	(obj:8)
t_x_1082                                            1 	(obj:12)
t_x_1084                                            1 	(obj:3)
t_x_1086                                            1 	(obj:4)
t_x_1092                                            1 	(obj:35)
t_x_1093                                            1 	(obj:24)
t_x_1102                                            1 	(obj:8)
t_x_1103                                            1 	(obj:39)
t_x_1104                                            1 	(obj:6)
t_x_1106                                            1 	(obj:51)
t_x_1109                                            1 	(obj:1)
t_x_1117                                            1 	(obj:6)
t_x_1118                                            1 	(obj:43)
t_x_1123                                            1 	(obj:17)
t_x_1126                                            1 	(obj:39)
t_x_1127                                            1 	(obj:10)
t_x_1129                                            1 	(obj:6)
t_x_1132                                            1 	(obj:24)
t_x_1133                                            1 	(obj:23)
t_x_1141                                            1 	(obj:13)
t_x_1142                                            1 	(obj:20)
t_x_1143                                            1 	(obj:17)
t_x_1144                                            1 	(obj:9)
t_x_1153                                            1 	(obj:30)
t_x_1156                                            1 	(obj:14)
t_x_1170                                            1 	(obj:2)
t_x_1173                                            1 	(obj:16)
t_x_1175                                            1 	(obj:14)
t_x_1177                                            1 	(obj:55)
t_x_1183                                            1 	(obj:40)
t_x_1184                                            1 	(obj:5)
t_x_1186                                            1 	(obj:11)
t_x_1189                                            1 	(obj:12)
t_x_1195                                            1 	(obj:18)
t_x_1199                                            1 	(obj:7)
t_x_1200                                            1 	(obj:22)
t_x_1205                                            1 	(obj:0)
t_x_1206                                            1 	(obj:54)
t_x_1209                                            1 	(obj:13)
t_x_1210                                            1 	(obj:14)
t_x_1220                                            1 	(obj:11)
t_x_1223                                            1 	(obj:17)
t_x_1227                                            1 	(obj:8)
t_x_1232                                            1 	(obj:42)
t_x_1234                                            1 	(obj:4)
t_x_1238                                            1 	(obj:26)
t_x_1245                                            1 	(obj:22)
t_x_1248                                            1 	(obj:8)
t_x_1255                                            1 	(obj:0)
t_x_1257                                            1 	(obj:13)
t_x_1265                                            1 	(obj:13)
t_x_1268                                            1 	(obj:44)
t_x_1279                                            1 	(obj:8)
t_x_1281                                            1 	(obj:23)
t_x_1282                                            1 	(obj:2)
t_x_1286                                            1 	(obj:68)
t_x_1288                                            1 	(obj:13)
t_x_1291                                            1 	(obj:18)
t_x_1293                                            1 	(obj:31)
t_x_1295                                            1 	(obj:5)
t_x_1301                                            1 	(obj:16)
t_x_1303                                            1 	(obj:26)
t_x_1305                                            1 	(obj:2)
t_x_1308                                            1 	(obj:10)
t_x_1309                                            1 	(obj:13)
t_x_1313                                            1 	(obj:48)
t_x_1314                                            1 	(obj:29)
t_x_1316                                            1 	(obj:5)
t_x_1317                                            1 	(obj:40)
t_x_1323                                            1 	(obj:34)
t_x_1327                                            1 	(obj:25)
t_x_1328                                            1 	(obj:6)
t_x_1332                                            1 	(obj:61)
t_x_1335                                            1 	(obj:4)
t_x_1336                                            1 	(obj:19)
t_x_1338                                            1 	(obj:38)
t_x_1339                                            1 	(obj:1)
t_x_1342                                            1 	(obj:6)
t_x_1344                                            1 	(obj:0)
t_x_1349                                            1 	(obj:23)
t_x_1350                                            1 	(obj:31)
t_x_1360                                            1 	(obj:31)
t_x_1361                                            1 	(obj:18)
t_x_1365                                            1 	(obj:25)
t_x_1366                                            1 	(obj:2)
t_x_1369                                            1 	(obj:0)
t_x_1371                                            1 	(obj:12)
t_x_1373                                            1 	(obj:6)
t_x_1378                                            1 	(obj:22)
t_x_1381                                            1 	(obj:20)
t_x_1383                                            1 	(obj:7)
t_x_1385                                            1 	(obj:6)
t_x_1386                                            1 	(obj:3)
t_x_1387                                            1 	(obj:12)
t_x_1390                                            1 	(obj:14)
t_x_1392                                            1 	(obj:14)
t_x_1397                                            1 	(obj:11)
t_x_1398                                            1 	(obj:31)
t_x_1399                                            1 	(obj:2)
t_x_1402                                            1 	(obj:16)
t_x_1403                                            1 	(obj:30)
t_x_1414                                            1 	(obj:11)
t_x_1415                                            1 	(obj:32)
t_x_1421                                            1 	(obj:7)
t_x_1422                                            1 	(obj:12)
t_x_1424                                            1 	(obj:9)
t_x_1428                                            1 	(obj:1)
t_x_1429                                            1 	(obj:2)
t_x_1437                                            1 	(obj:23)
t_x_1438                                            1 	(obj:11)
t_x_1441                                            1 	(obj:31)
t_x_1448                                            1 	(obj:19)
t_x_1449                                            1 	(obj:19)
t_x_1451                                            1 	(obj:43)
t_x_1452                                            1 	(obj:24)
t_x_1467                                            1 	(obj:12)
t_x_1468                                            1 	(obj:18)
t_x_1470                                            1 	(obj:11)
t_x_1474                                            1 	(obj:5)
t_x_1477                                            1 	(obj:4)
t_x_1482                                            1 	(obj:24)
t_x_1491                                            1 	(obj:10)
t_x_1492                                            1 	(obj:7)
t_x_1501                                            1 	(obj:32)
t_x_1504                                            1 	(obj:8)
t_x_1506                                            1 	(obj:32)
t_x_1507                                            1 	(obj:1)
t_x_1509                                            1 	(obj:13)
t_x_1511                                            1 	(obj:5)
t_x_1513                                            1 	(obj:11)
t_x_1516                                            1 	(obj:5)
t_x_1531                                            1 	(obj:7)
t_x_1532                                            1 	(obj:34)
t_x_1534                                            1 	(obj:38)
t_x_1536                                            1 	(obj:45)
t_x_1537                                            1 	(obj:4)
t_x_1539                                            1 	(obj:1)
t_x_1541                                            1 	(obj:4)
t_x_1543                                            1 	(obj:9)
t_x_1547                                            1 	(obj:28)
t_x_1548                                            1 	(obj:55)
t_x_1550                                            1 	(obj:22)
t_x_1554                                            1 	(obj:18)
t_x_1555                                            1 	(obj:33)
t_x_1562                                            1 	(obj:45)
t_x_1568                                            1 	(obj:14)
t_x_1577                                            1 	(obj:5)
t_x_1579                                            1 	(obj:7)
t_x_1582                                            1 	(obj:10)
t_x_1584                                            1 	(obj:2)
t_x_1586                                            1 	(obj:8)
t_x_1594                                            1 	(obj:28)
t_x_1599                                            1 	(obj:1)
t_x_1606                                            1 	(obj:9)
t_x_1609                                            1 	(obj:14)
t_x_1610                                            1 	(obj:60)
t_x_1612                                            1 	(obj:45)
t_x_1613                                            1 	(obj:25)
t_x_1619                                            1 	(obj:1)
t_x_1626                                            1 	(obj:0)
t_x_1628                                            1 	(obj:20)
t_x_1632                                            1 	(obj:41)
t_x_1633                                            1 	(obj:1)
t_x_1634                                            1 	(obj:37)
t_x_1635                                            1 	(obj:32)
t_x_1638                                            1 	(obj:15)
t_x_1651                                            1 	(obj:34)
t_x_1663                                            1 	(obj:6)
t_x_1664                                            1 	(obj:19)
t_x_1670                                            1 	(obj:6)
t_x_1672                                            1 	(obj:42)
t_x_1676                                            1 	(obj:7)
t_x_1679                                            1 	(obj:9)
t_x_1681                                            1 	(obj:9)
t_x_1683                                            1 	(obj:0)
t_x_1684                                            1 	(obj:2)
t_x_1687                                            1 	(obj:16)
t_x_1692                                            1 	(obj:5)
t_x_1697                                            1 	(obj:1)
t_x_1698                                            1 	(obj:2)
t_x_1699                                            1 	(obj:3)
t_x_1701                                            1 	(obj:1)
t_x_1703                                            1 	(obj:8)
t_x_1709                                            1 	(obj:42)
t_x_1710                                            1 	(obj:6)
t_x_1713                                            1 	(obj:4)
t_x_1714                                            1 	(obj:4)
t_x_1717                                            1 	(obj:5)
t_x_1723                                            1 	(obj:11)
t_x_1730                                            1 	(obj:1)
t_x_1735                                            1 	(obj:2)
t_x_1740                                            1 	(obj:2)
t_x_1741                                            1 	(obj:4)
t_x_1742                                            1 	(obj:30)
t_x_1743                                            1 	(obj:1)
t_x_1747                                            1 	(obj:17)
t_x_1749                                            1 	(obj:1)
t_x_1757                                            1 	(obj:2)
t_x_1759                                            1 	(obj:29)
t_x_1763                                            1 	(obj:17)
t_x_1764                                            1 	(obj:3)
t_x_1765                                            1 	(obj:28)
t_x_1766                                            1 	(obj:39)
t_x_1768                                            1 	(obj:5)
t_x_1770                                            1 	(obj:2)
t_x_1772                                            1 	(obj:37)
t_x_1776                                            1 	(obj:0)
t_x_1780                                            1 	(obj:22)
t_x_1786                                            1 	(obj:7)
t_x_1789                                            1 	(obj:1)
t_x_1794                                            1 	(obj:19)
t_x_1795                                            1 	(obj:41)
t_x_1806                                            1 	(obj:22)
t_x_1807                                            1 	(obj:9)
t_x_1810                                            1 	(obj:25)
t_x_1815                                            1 	(obj:8)
t_x_1816                                            1 	(obj:2)
t_x_1824                                            1 	(obj:15)
t_x_1826                                            1 	(obj:3)
t_x_1828                                            1 	(obj:19)
t_x_1833                                            1 	(obj:45)
t_x_1836                                            1 	(obj:49)
t_x_1839                                            1 	(obj:36)
t_x_1843                                            1 	(obj:32)
t_x_1851                                            1 	(obj:24)
t_x_1852                                            1 	(obj:10)
t_x_1857                                            1 	(obj:6)
t_x_1858                                            1 	(obj:16)
t_x_1860                                            1 	(obj:4)
t_x_1863                                            1 	(obj:0)
t_x_1868                                            1 	(obj:10)
t_x_1878                                            1 	(obj:23)
t_x_1879                                            1 	(obj:14)
t_x_1887                                            1 	(obj:16)
t_x_1889                                            1 	(obj:8)
t_x_1890                                            1 	(obj:28)
t_x_1891                                            1 	(obj:7)
t_x_1894                                            1 	(obj:16)
t_x_1896                                            1 	(obj:30)
t_x_1899                                            1 	(obj:8)
t_x_1902                                            1 	(obj:45)
t_x_1903                                            1 	(obj:5)
t_x_1905                                            1 	(obj:0)
t_x_1910                                            1 	(obj:8)
t_x_1916                                            1 	(obj:5)
t_x_1917                                            1 	(obj:14)
t_x_1918                                            1 	(obj:13)
t_x_1919                                            1 	(obj:0)
t_x_1922                                            1 	(obj:3)
t_x_1923                                            1 	(obj:13)
t_x_1930                                            1 	(obj:30)
t_x_1931                                            1 	(obj:47)
t_x_1932                                            1 	(obj:16)
t_x_1934                                            1 	(obj:10)
t_x_1936                                            1 	(obj:14)
t_x_1937                                            1 	(obj:12)
t_x_1938                                            1 	(obj:7)
t_x_1948                                            1 	(obj:5)
t_x_1950                                            1 	(obj:9)
t_x_1954                                            1 	(obj:17)
t_x_1958                                            1 	(obj:28)
t_x_1961                                            1 	(obj:7)
t_x_1963                                            1 	(obj:20)
t_x_1964                                            1 	(obj:2)
t_x_1965                                            1 	(obj:27)
t_x_1968                                            1 	(obj:6)
t_x_1970                                            1 	(obj:19)
t_x_1972                                            1 	(obj:27)
t_x_1983                                            1 	(obj:22)
t_x_1985                                            1 	(obj:23)
t_x_1986                                            1 	(obj:10)
t_x_1987                                            1 	(obj:2)
t_x_1990                                            1 	(obj:3)
t_x_1991                                            1 	(obj:19)
t_x_1993                                            1 	(obj:22)
t_x_1998                                            1 	(obj:15)
t_x_1999                                            1 	(obj:22)
